sat
(
(define-fun I () String "ccd")
(define-fun B () String "dacdbdcddaababccaddacbaabdababcacbcababcadddcaadcdcbbacdd")
(define-fun G () String "b")
(define-fun F () String "")
(define-fun D () String "acbaab")
)
